NAME          ClpDefau  FREE
ROWS
 N  OBJROW
 L  ZMUNI1_PCT
 L  ZMUNI2_PCT
 L  ZMUNI3_PCT
 L  ZMUNI4_PCT
 L  ZMUNI5_PCT
 L  ZMUNI6_PCT
 L  ZMUNI7_PCT
 L  ZMUNI8_PCT
 L  ZMUNI9_PCT
COLUMNS
    QMUNI1 OBJROW 1.          
    QMUNI1 ZMUNI1_PCT 28907.2036  
    QMUNI1 ZMUNI2_PCT 1797.1039   
    QMUNI1 ZMUNI3_PCT 4203.7964   
    QMUNI1 ZMUNI4_PCT 3089.1419   
    QMUNI1 ZMUNI5_PCT 77.8199     
    QMUNI1 ZMUNI6_PCT 257.1106    
    QMUNI1 ZMUNI7_PCT 1686.8592   
    QMUNI1 ZMUNI8_PCT 1295.8527   
    QMUNI1 ZMUNI9_PCT 448.7991    
    QMUNI2 OBJROW 1.          
    QMUNI2 ZMUNI1_PCT 1740.6463   
    QMUNI2 ZMUNI2_PCT 34373.2834  
    QMUNI2 ZMUNI3_PCT 2544.5938   
    QMUNI2 ZMUNI4_PCT 2699.3752   
    QMUNI2 ZMUNI5_PCT 247.9554    
    QMUNI2 ZMUNI6_PCT 289.5355    
    QMUNI2 ZMUNI7_PCT 1238.2508   
    QMUNI2 ZMUNI8_PCT 1376.7243   
    QMUNI2 ZMUNI9_PCT 1228.9047   
    QMUNI3 OBJROW 1.          
    QMUNI3 ZMUNI1_PCT 3983.3068   
    QMUNI3 ZMUNI2_PCT 2471.5423   
    QMUNI3 ZMUNI3_PCT 30267.9062  
    QMUNI3 ZMUNI4_PCT 4982.2808   
    QMUNI3 ZMUNI5_PCT  -317.0013  
    QMUNI3 ZMUNI6_PCT  -156.9748  
    QMUNI3 ZMUNI7_PCT 980.3772    
    QMUNI3 ZMUNI8_PCT 871.0861    
    QMUNI3 ZMUNI9_PCT 173.5687    
    QMUNI4 OBJROW 1.          
    QMUNI4 ZMUNI1_PCT 3055.3817   
    QMUNI4 ZMUNI2_PCT 2831.459    
    QMUNI4 ZMUNI3_PCT 5258.7509   
    QMUNI4 ZMUNI4_PCT 107495.4987 
    QMUNI4 ZMUNI5_PCT  -204.6585  
    QMUNI4 ZMUNI6_PCT  -103.1876  
    QMUNI4 ZMUNI7_PCT 831.9855    
    QMUNI4 ZMUNI8_PCT 799.1791    
    QMUNI4 ZMUNI9_PCT 261.4975    
    QMUNI5 OBJROW 1.          
    QMUNI5 ZMUNI1_PCT 251.5792    
    QMUNI5 ZMUNI2_PCT 171.2799    
    QMUNI5 ZMUNI3_PCT 219.9173    
    QMUNI5 ZMUNI4_PCT 185.299     
    QMUNI5 ZMUNI5_PCT 35196.3044  
    QMUNI5 ZMUNI6_PCT 2631.9503   
    QMUNI5 ZMUNI7_PCT 260.1624    
    QMUNI5 ZMUNI8_PCT 132.5607    
    QMUNI5 ZMUNI9_PCT 110.054     
    QMUNI6 OBJROW 1.          
    QMUNI6 ZMUNI1_PCT 269.6991    
    QMUNI6 ZMUNI2_PCT 62.9425     
    QMUNI6 ZMUNI3_PCT 191.1163    
    QMUNI6 ZMUNI4_PCT 148.5825    
    QMUNI6 ZMUNI5_PCT 2730.5603   
    QMUNI6 ZMUNI6_PCT 32513.237   
    QMUNI6 ZMUNI7_PCT 229.6448    
    QMUNI6 ZMUNI8_PCT  -58.1741   
    QMUNI6 ZMUNI9_PCT  -226.7838  
    QMUNI7 OBJROW 1.          
    QMUNI7 ZMUNI1_PCT 987.0529    
    QMUNI7 ZMUNI2_PCT 393.6767    
    QMUNI7 ZMUNI3_PCT 823.4024    
    QMUNI7 ZMUNI4_PCT 589.8476    
    QMUNI7 ZMUNI5_PCT  -588.7985  
    QMUNI7 ZMUNI6_PCT  -340.8432  
    QMUNI7 ZMUNI7_PCT 29928.2074  
    QMUNI7 ZMUNI8_PCT 1501.2741   
    QMUNI7 ZMUNI9_PCT  -289.1541  
    QMUNI8 OBJROW 1.          
    QMUNI8 ZMUNI1_PCT 998.3062    
    QMUNI8 ZMUNI2_PCT 869.751     
    QMUNI8 ZMUNI3_PCT 1032.2571   
    QMUNI8 ZMUNI4_PCT 819.4924    
    QMUNI8 ZMUNI5_PCT  -183.1054  
    QMUNI8 ZMUNI6_PCT  -77.4384   
    QMUNI8 ZMUNI7_PCT 2023.6969   
    QMUNI8 ZMUNI8_PCT 28328.1326  
    QMUNI8 ZMUNI9_PCT 908.4701    
    QMUNI9 OBJROW 1.          
    QMUNI9 ZMUNI1_PCT 524.5208    
    QMUNI9 ZMUNI2_PCT 874.7101    
    QMUNI9 ZMUNI3_PCT 634.7656    
    QMUNI9 ZMUNI4_PCT 571.6324    
    QMUNI9 ZMUNI5_PCT  -53.5965   
    QMUNI9 ZMUNI6_PCT  -18.5013   
    QMUNI9 ZMUNI7_PCT 473.7854    
    QMUNI9 ZMUNI8_PCT 979.6143    
    QMUNI9 ZMUNI9_PCT 27167.7017  
RHS
    RHS ZMUNI1_PCT 0.187687347 
    RHS ZMUNI2_PCT -0.057128052
    RHS ZMUNI3_PCT -0.033876938
    RHS ZMUNI4_PCT 1.118165009 
    RHS ZMUNI5_PCT  -0.22128705
    RHS ZMUNI6_PCT  -0.21475034
    RHS ZMUNI7_PCT 0.072224457 
    RHS ZMUNI8_PCT  -0.14079411
    RHS ZMUNI9_PCT  -0.17507588
BOUNDS
 LO BOUND QMUNI1 -0.00082631 
 UP BOUND QMUNI1      1.1e+10
 LO BOUND QMUNI2 -0.000577501
 UP BOUND QMUNI2      1.1e+10
 LO BOUND QMUNI3 -0.000639256
 UP BOUND QMUNI3      1.1e+10
 LO BOUND QMUNI4 -0.000231249
 UP BOUND QMUNI4      1.1e+10
 LO BOUND QMUNI5 -0.000429718
 UP BOUND QMUNI5      1.1e+10
 LO BOUND QMUNI6 -0.000596244
 UP BOUND QMUNI6      1.1e+10
 LO BOUND QMUNI7 -0.000254779
 UP BOUND QMUNI7      1.1e+10
 LO BOUND QMUNI8 -0.00036845 
 UP BOUND QMUNI8      1.1e+10
 LO BOUND QMUNI9 -0.000386692
 UP BOUND QMUNI9      1.1e+10
ENDATA
